NAME : instances/clustered-mixed-tsp/instance-56.tsp
COMMENT : No Comment
TYPE : TSP
DIMENSION: 53
EDGE_WEIGHT_TYPE : EUC_2D
NODE_COORD_SECTION
1 264 -18 
2 566 537 
3 212 940 
4 1028 435 
5 1176 273 
6 264 203 
7 739 775 
8 196 475 
9 972 18 
10 39 112 
11 349 16 
12 192 129 
13 1193 154 
14 802 18 
15 120 390 
16 -338 626 
17 -287 847 
18 -338 609 
19 717 18 
20 515 435 
21 179 254 
22 -110 -137 
23 196 458 
24 705 418 
25 -127 152 
26 464 741 
27 277 469 
28 409 305 
29 515 248 
30 131 151 
31 70 609 
32 532 724 
33 223 1136 
34 547 -118 
35 -26 923 
36 345 725 
37 972 137 
38 -304 1119 
39 -50 254 
40 -117 830 
41 685 249 
42 -212 -52 
43 -202 1136 
44 77 16 
45 498 112 
46 566 231 
47 22 486 
48 972 -118 
49 615 86 
50 256 -35 
51 736 674 
52 26 441 
53 294 334 
EOF
